p cnf 28 29
-1 -2 11 14 25 0 
-3 25 0 
-4 9 22 -5 26 0 
-6 26 0 
-7 17 19 21 27 0 
-8 28 0 
-9 4 22 27 0 
-10 13 20 -2 11 14 28 0 
-9 4 22 28 0 
-2 11 14 28 0 
-11 2 14 26 0 
-2 11 14 27 0 
-10 13 20 27 0 
-4 9 22 26 0 
-3 28 0 
-12 15 16 27 0 
-13 10 20 27 0 
-14 2 11 27 0 
-15 12 16 26 0 
-8 -10 13 20 27 0 
-16 12 15 28 0 
-17 7 19 21 27 0 
-18 -19 7 17 21 -3 -4 9 22 -20 10 13 26 0 
-21 7 17 19 28 0 
-22 4 9 27 0 
-7 17 19 21 28 0 
-20 10 13 -4 9 22 26 0 
-23 28 0 
-24 27 0 
